myproject/instances/20nodes/rnd28_20.tsp
NAME : rnd28_20.tsp
TYPE : TSP
DIMENSION : 20
EDGE_WEIGHT_TYPE : EUC_2D
NODE_COORD_SECTION
1 628 5
2 684 454
3 93 717
4 194 686
5 970 317
6 773 956
7 424 570
8 937 390
9 136 323
10 667 506
11 102 725
12 747 395
13 658 285
14 812 626
15 106 828
16 490 621
17 53 87
18 254 264
19 50 229
20 166 227
