myproject/instances/20nodes/rnd28_20.opt.tour
NAME : rnd28_20.tsp.tsp.optbc.tour
TYPE : TOUR
DIMENSION : 20
TOUR_SECTION
0
17
13
15
1
16
5
10
2
4
6
9
7
3
18
14
12
11
8
19
-1